(set-logic HORN)
(set-info :source |
  Benchmark: ../golem/build/RealCodeNested/originalcodeUFLIAmbiZ3sceleton1.c
  Generated by Korn 0.4 https://github.com/gernst/korn
|)


(declare-fun __assert_fail (Int Int Int Int) Bool)
(declare-fun $main_if5 (Int Int Int Int Int Int Int Int Int Int Int Int Int Int Int Int Int Int Int Int Int Int Int Int Int Int Int Int Int Int Int Int) Bool)
(declare-fun $main_sum3 (Int Int Int Int Int Int Int Int Int Int Int Int Int Int Int Int) Bool)
(declare-fun $__VERIFIER_assert_pre (Int) Bool)
(declare-fun $__VERIFIER_assert_if1 (Int Int) Bool)
(declare-fun $main_if3 (Int Int Int Int Int Int Int Int Int Int Int Int Int Int Int Int Int Int Int Int Int Int Int Int Int Int Int Int Int Int Int Int) Bool)
(declare-fun $main_inv2 (Int Int Int Int Int Int Int Int Int Int Int Int Int Int Int Int) Bool)
(declare-fun $main_inv3 (Int Int Int Int Int Int Int Int Int Int Int Int Int Int Int Int) Bool)
(declare-fun $main_sum2 (Int Int Int Int Int Int Int Int Int Int Int Int Int Int Int Int) Bool)
(declare-fun $my_v_pre () Bool)
(declare-fun $main_if4 (Int Int Int Int Int Int Int Int Int Int Int Int Int Int Int Int Int Int Int Int Int Int Int Int Int Int Int Int Int Int Int Int) Bool)
(declare-fun my_v (Int) Bool)
(declare-fun $main_inv1 (Int Int Int Int Int Int Int Int Int Int Int Int Int Int Int Int) Bool)
(declare-fun $main_sum1 (Int Int Int Int Int Int Int Int Int Int Int Int Int Int Int Int) Bool)
(declare-fun __VERIFIER_assert (Int) Bool)
(declare-fun $__assert_fail_pre (Int Int Int Int) Bool)
(declare-fun $main_if2 (Int Int Int Int Int Int Int Int Int Int Int Int Int Int Int Int Int Int Int Int Int Int Int Int Int Int Int Int Int Int Int Int) Bool)
(declare-fun $__VERIFIER_assert_ERROR (Int Int) Bool)

; label ERROR
(assert
  (forall ((cond!1 Int))
    (=> (and (not (not (= cond!1 0)))
             ($__VERIFIER_assert_pre cond!1))
        ($__VERIFIER_assert_ERROR cond!1 cond!1))))

; error
(assert
  (forall ((cond!1 Int) (cond!2 Int))
    (=> (and ($__VERIFIER_assert_ERROR cond!1 cond!2))
        false)))

; if else
(assert
  (forall ((cond!1 Int))
    (=> (and (not (not (not (= cond!1 0))))
             ($__VERIFIER_assert_pre cond!1))
        ($__VERIFIER_assert_if1 cond!1 cond!1))))

; post __VERIFIER_assert
(assert
  (forall ((cond!1 Int) (cond!3 Int))
    (=> (and ($__VERIFIER_assert_if1 cond!1 cond!3))
        (__VERIFIER_assert cond!1))))

; loop entry $main_inv1 (line 19)
(assert
  (forall ((exprSize!15 Int) (j!18 Int) (val!17 Int) (todo!6 Int) (isApp!11 Int) (cache!5 Int) (isShared!13 Int) (containsE!10 Int) (sz!12 Int) (litsSize!9 Int) (trail!4 Int) (i!14 Int) (size!8 Int) (found!16 Int) (args!7 Int) (lit!19 Int))
    (=> (and (<= 20 litsSize!9)
             (<= litsSize!9 5024)
             (<= 10 size!8)
             (<= size!8 1024)
             (= args!7 0)
             (= todo!6 1)
             (= cache!5 0)
             (= trail!4 0))
        ($main_inv1 trail!4 cache!5 todo!6 args!7 size!8 litsSize!9 containsE!10 isApp!11 sz!12 isShared!13 i!14 exprSize!15 found!16 val!17 j!18 lit!19))))

; loop term $main_sum1 (line 19)
(assert
  (forall ((trail!20 Int) (sz!28 Int) (containsE!26 Int) (size!24 Int) (exprSize!31 Int) (litsSize!25 Int) (isApp!27 Int) (found!32 Int) (isShared!29 Int) (todo!22 Int) (cache!21 Int) (i!30 Int) (j!34 Int) (lit!35 Int) (val!33 Int) (args!23 Int))
    (=> (and (not (> size!24 0))
             ($main_inv1 trail!20 cache!21 todo!22 args!23 size!24 litsSize!25 containsE!26 isApp!27 sz!28 isShared!29 i!30 exprSize!31 found!32 val!33 j!34 lit!35))
        ($main_sum1 trail!20 cache!21 todo!22 args!23 size!24 litsSize!25 containsE!26 isApp!27 sz!28 isShared!29 i!30 exprSize!31 found!32 val!33 j!34 lit!35))))

; if then
(assert
  (forall ((trail!20 Int) (sz!28 Int) (containsE!26 Int) (size!24 Int) (exprSize!31 Int) (litsSize!25 Int) (isApp!27 Int) (found!32 Int) (isShared!29 Int) (todo!22 Int) (cache!21 Int) (i!30 Int) (j!34 Int) (lit!35 Int) (val!33 Int) (args!23 Int))
    (=> (and (= containsE!26 1)
             (> size!24 0)
             ($main_inv1 trail!20 cache!21 todo!22 args!23 size!24 litsSize!25 containsE!26 isApp!27 sz!28 isShared!29 i!30 exprSize!31 found!32 val!33 j!34 lit!35))
        ($main_if2 trail!20 cache!21 todo!22 args!23 size!24 litsSize!25 containsE!26 isApp!27 sz!28 isShared!29 i!30 exprSize!31 found!32 val!33 j!34 lit!35 trail!20 cache!21 0 args!23 size!24 litsSize!25 containsE!26 isApp!27 sz!28 isShared!29 i!30 exprSize!31 found!32 val!33 j!34 lit!35))))

; if else
(assert
  (forall ((trail!20 Int) (sz!28 Int) (containsE!26 Int) (size!24 Int) (exprSize!31 Int) (litsSize!25 Int) (isApp!27 Int) (found!32 Int) (isShared!29 Int) (todo!22 Int) (cache!21 Int) (i!30 Int) (j!34 Int) (lit!35 Int) (val!33 Int) (args!23 Int))
    (=> (and (not (= containsE!26 1))
             (> size!24 0)
             ($main_inv1 trail!20 cache!21 todo!22 args!23 size!24 litsSize!25 containsE!26 isApp!27 sz!28 isShared!29 i!30 exprSize!31 found!32 val!33 j!34 lit!35))
        ($main_if2 trail!20 cache!21 todo!22 args!23 size!24 litsSize!25 containsE!26 isApp!27 sz!28 isShared!29 i!30 exprSize!31 found!32 val!33 j!34 lit!35 trail!20 cache!21 todo!22 args!23 size!24 litsSize!25 containsE!26 isApp!27 sz!28 isShared!29 i!30 exprSize!31 found!32 val!33 j!34 lit!35))))

; if then
(assert
  (forall ((trail!20 Int) (todo!38 Int) (sz!28 Int) (exprSize!31 Int) (litsSize!25 Int) (found!32 Int) (litsSize!41 Int) (todo!22 Int) (cache!37 Int) (found!48 Int) (j!34 Int) (val!33 Int) (args!23 Int) (trail!36 Int) (containsE!26 Int) (size!40 Int) (exprSize!47 Int) (size!24 Int) (args!39 Int) (isApp!27 Int) (i!46 Int) (isShared!29 Int) (val!49 Int) (cache!21 Int) (sz!44 Int) (lit!51 Int) (i!30 Int) (j!50 Int) (isShared!45 Int) (lit!35 Int) (isApp!43 Int) (containsE!42 Int))
    (=> (and (= isApp!43 0)
             ($main_if2 trail!20 cache!21 todo!22 args!23 size!24 litsSize!25 containsE!26 isApp!27 sz!28 isShared!29 i!30 exprSize!31 found!32 val!33 j!34 lit!35 trail!36 cache!37 todo!38 args!39 size!40 litsSize!41 containsE!42 isApp!43 sz!44 isShared!45 i!46 exprSize!47 found!48 val!49 j!50 lit!51))
        ($main_if3 trail!20 cache!21 todo!22 args!23 size!24 litsSize!25 containsE!26 isApp!27 sz!28 isShared!29 i!30 exprSize!31 found!32 val!33 j!34 lit!35 trail!36 1 todo!38 args!39 (+ size!40 1) litsSize!41 containsE!42 isApp!43 sz!44 isShared!45 i!46 exprSize!47 found!48 val!49 j!50 lit!51))))

; if else
(assert
  (forall ((trail!20 Int) (todo!38 Int) (sz!28 Int) (exprSize!31 Int) (litsSize!25 Int) (found!32 Int) (litsSize!41 Int) (todo!22 Int) (cache!37 Int) (found!48 Int) (j!34 Int) (val!33 Int) (args!23 Int) (trail!36 Int) (containsE!26 Int) (size!40 Int) (exprSize!47 Int) (size!24 Int) (args!39 Int) (isApp!27 Int) (i!46 Int) (isShared!29 Int) (val!49 Int) (cache!21 Int) (sz!44 Int) (lit!51 Int) (i!30 Int) (j!50 Int) (isShared!45 Int) (lit!35 Int) (isApp!43 Int) (containsE!42 Int))
    (=> (and (not (= isApp!43 0))
             ($main_if2 trail!20 cache!21 todo!22 args!23 size!24 litsSize!25 containsE!26 isApp!27 sz!28 isShared!29 i!30 exprSize!31 found!32 val!33 j!34 lit!35 trail!36 cache!37 todo!38 args!39 size!40 litsSize!41 containsE!42 isApp!43 sz!44 isShared!45 i!46 exprSize!47 found!48 val!49 j!50 lit!51))
        ($main_if3 trail!20 cache!21 todo!22 args!23 size!24 litsSize!25 containsE!26 isApp!27 sz!28 isShared!29 i!30 exprSize!31 found!32 val!33 j!34 lit!35 trail!36 cache!37 todo!38 args!39 size!40 litsSize!41 containsE!42 isApp!43 sz!44 isShared!45 i!46 exprSize!47 found!48 val!49 j!50 lit!51))))

; if then
(assert
  (forall ((size!24 Int) (litsSize!25 Int) (isApp!27 Int) (isShared!29 Int) (containsE!58 Int) (todo!22 Int) (cache!21 Int) (cache!53 Int) (isApp!59 Int) (i!30 Int) (val!33 Int) (args!23 Int) (exprSize!63 Int) (j!66 Int) (trail!20 Int) (sz!28 Int) (litsSize!57 Int) (containsE!26 Int) (i!62 Int) (args!55 Int) (exprSize!31 Int) (lit!67 Int) (found!32 Int) (isShared!61 Int) (todo!54 Int) (j!34 Int) (sz!60 Int) (val!65 Int) (trail!52 Int) (found!64 Int) (size!56 Int) (lit!35 Int))
    (=> (and (= isShared!61 0)
             (= sz!60 size!56)
             ($main_if3 trail!20 cache!21 todo!22 args!23 size!24 litsSize!25 containsE!26 isApp!27 sz!28 isShared!29 i!30 exprSize!31 found!32 val!33 j!34 lit!35 trail!52 cache!53 todo!54 args!55 size!56 litsSize!57 containsE!58 isApp!59 sz!60 isShared!61 i!62 exprSize!63 found!64 val!65 j!66 lit!67))
        ($main_if4 trail!20 cache!21 todo!22 args!23 size!24 litsSize!25 containsE!26 isApp!27 sz!28 isShared!29 i!30 exprSize!31 found!32 val!33 j!34 lit!35 1 1 todo!54 0 (+ size!56 1) litsSize!57 containsE!58 isApp!59 sz!60 isShared!61 i!62 exprSize!63 found!64 val!65 j!66 lit!67))))

; if else
(assert
  (forall ((size!24 Int) (litsSize!25 Int) (isApp!27 Int) (isShared!29 Int) (containsE!58 Int) (todo!22 Int) (cache!21 Int) (cache!53 Int) (isApp!59 Int) (i!30 Int) (val!33 Int) (args!23 Int) (exprSize!63 Int) (j!66 Int) (trail!20 Int) (sz!28 Int) (litsSize!57 Int) (containsE!26 Int) (i!62 Int) (args!55 Int) (exprSize!31 Int) (lit!67 Int) (found!32 Int) (isShared!61 Int) (todo!54 Int) (j!34 Int) (sz!60 Int) (val!65 Int) (trail!52 Int) (found!64 Int) (size!56 Int) (lit!35 Int))
    (=> (and (not (= isShared!61 0))
             (= sz!60 size!56)
             ($main_if3 trail!20 cache!21 todo!22 args!23 size!24 litsSize!25 containsE!26 isApp!27 sz!28 isShared!29 i!30 exprSize!31 found!32 val!33 j!34 lit!35 trail!52 cache!53 todo!54 args!55 size!56 litsSize!57 containsE!58 isApp!59 sz!60 isShared!61 i!62 exprSize!63 found!64 val!65 j!66 lit!67))
        ($main_if4 trail!20 cache!21 todo!22 args!23 size!24 litsSize!25 containsE!26 isApp!27 sz!28 isShared!29 i!30 exprSize!31 found!32 val!33 j!34 lit!35 trail!52 cache!53 todo!54 0 size!56 litsSize!57 containsE!58 isApp!59 sz!60 isShared!61 i!62 exprSize!63 found!64 val!65 j!66 lit!67))))

; loop entry $main_inv2 (line 40)
(assert
  (forall ((trail!20 Int) (sz!28 Int) (litsSize!25 Int) (isApp!27 Int) (cache!21 Int) (containsE!74 Int) (args!71 Int) (j!34 Int) (trail!68 Int) (lit!35 Int) (val!33 Int) (args!23 Int) (sz!76 Int) (containsE!26 Int) (i!78 Int) (size!24 Int) (todo!70 Int) (lit!83 Int) (exprSize!31 Int) (exprSize!79 Int) (found!32 Int) (cache!69 Int) (isShared!29 Int) (size!72 Int) (todo!22 Int) (litsSize!73 Int) (found!80 Int) (i!30 Int) (j!82 Int) (isApp!75 Int) (isShared!77 Int) (val!81 Int))
    (=> (and (<= 2 exprSize!79)
             (<= exprSize!79 128)
             (= i!78 0)
             ($main_if4 trail!20 cache!21 todo!22 args!23 size!24 litsSize!25 containsE!26 isApp!27 sz!28 isShared!29 i!30 exprSize!31 found!32 val!33 j!34 lit!35 trail!68 cache!69 todo!70 args!71 size!72 litsSize!73 containsE!74 isApp!75 sz!76 isShared!77 i!78 exprSize!79 found!80 val!81 j!82 lit!83))
        ($main_inv2 trail!68 cache!69 todo!70 args!71 size!72 litsSize!73 containsE!74 isApp!75 sz!76 isShared!77 i!78 exprSize!79 found!80 val!81 j!82 lit!83))))

; loop term $main_sum2 (line 40)
(assert
  (forall ((size!88 Int) (exprSize!95 Int) (isApp!91 Int) (j!98 Int) (isShared!93 Int) (sz!92 Int) (containsE!90 Int) (lit!99 Int) (cache!85 Int) (trail!84 Int) (val!97 Int) (todo!86 Int) (args!87 Int) (litsSize!89 Int) (i!94 Int) (found!96 Int))
    (=> (and (not (< i!94 exprSize!95))
             ($main_inv2 trail!84 cache!85 todo!86 args!87 size!88 litsSize!89 containsE!90 isApp!91 sz!92 isShared!93 i!94 exprSize!95 found!96 val!97 j!98 lit!99))
        ($main_sum2 trail!84 cache!85 todo!86 args!87 size!88 litsSize!89 containsE!90 isApp!91 sz!92 isShared!93 i!94 exprSize!95 found!96 val!97 j!98 lit!99))))

; if then
(assert
  (forall ((size!88 Int) (exprSize!95 Int) (isApp!91 Int) (j!98 Int) (isShared!93 Int) (sz!92 Int) (containsE!90 Int) (lit!99 Int) (cache!85 Int) (trail!84 Int) (val!97 Int) (todo!86 Int) (args!87 Int) (litsSize!89 Int) (i!94 Int) (found!96 Int))
    (=> (and (not (= found!96 1))
             (< i!94 exprSize!95)
             ($main_inv2 trail!84 cache!85 todo!86 args!87 size!88 litsSize!89 containsE!90 isApp!91 sz!92 isShared!93 i!94 exprSize!95 found!96 val!97 j!98 lit!99))
        ($main_if5 trail!84 cache!85 todo!86 args!87 size!88 litsSize!89 containsE!90 isApp!91 sz!92 isShared!93 i!94 exprSize!95 found!96 val!97 j!98 lit!99 trail!84 cache!85 todo!86 args!87 (+ size!88 1) litsSize!89 containsE!90 isApp!91 sz!92 isShared!93 i!94 exprSize!95 found!96 val!97 j!98 lit!99))))

; if else
(assert
  (forall ((size!88 Int) (exprSize!95 Int) (isApp!91 Int) (j!98 Int) (isShared!93 Int) (sz!92 Int) (containsE!90 Int) (lit!99 Int) (cache!85 Int) (trail!84 Int) (val!97 Int) (todo!86 Int) (args!87 Int) (litsSize!89 Int) (i!94 Int) (found!96 Int))
    (=> (and (not (not (= found!96 1)))
             (< i!94 exprSize!95)
             ($main_inv2 trail!84 cache!85 todo!86 args!87 size!88 litsSize!89 containsE!90 isApp!91 sz!92 isShared!93 i!94 exprSize!95 found!96 val!97 j!98 lit!99))
        ($main_if5 trail!84 cache!85 todo!86 args!87 size!88 litsSize!89 containsE!90 isApp!91 sz!92 isShared!93 i!94 exprSize!95 found!96 val!97 j!98 lit!99 trail!84 cache!85 todo!86 args!87 size!88 litsSize!89 containsE!90 isApp!91 sz!92 isShared!93 i!94 exprSize!95 found!96 val!97 j!98 lit!99))))

; forwards $main_inv2 (line 40)
(assert
  (forall ((sz!108 Int) (isShared!109 Int) (isApp!91 Int) (j!98 Int) (isShared!93 Int) (containsE!106 Int) (sz!92 Int) (containsE!90 Int) (found!112 Int) (i!110 Int) (trail!100 Int) (val!97 Int) (todo!86 Int) (lit!115 Int) (size!88 Int) (args!87 Int) (litsSize!89 Int) (exprSize!95 Int) (size!104 Int) (todo!102 Int) (cache!101 Int) (exprSize!111 Int) (j!114 Int) (isApp!107 Int) (lit!99 Int) (args!103 Int) (cache!85 Int) (litsSize!105 Int) (trail!84 Int) (val!113 Int) (i!94 Int) (found!96 Int))
    (=> (and ($main_if5 trail!84 cache!85 todo!86 args!87 size!88 litsSize!89 containsE!90 isApp!91 sz!92 isShared!93 i!94 exprSize!95 found!96 val!97 j!98 lit!99 trail!100 cache!101 todo!102 args!103 size!104 litsSize!105 containsE!106 isApp!107 sz!108 isShared!109 i!110 exprSize!111 found!112 val!113 j!114 lit!115))
        ($main_inv2 trail!100 cache!101 todo!102 args!103 size!104 litsSize!105 containsE!106 isApp!107 sz!108 isShared!109 (+ i!110 1) exprSize!111 found!112 val!113 j!114 lit!115))))

; forwards $main_inv1 (line 19)
(assert
  (forall ((found!128 Int) (exprSize!127 Int) (size!120 Int) (cache!117 Int) (args!119 Int) (lit!131 Int) (sz!124 Int) (isApp!123 Int) (trail!116 Int) (todo!118 Int) (val!129 Int) (containsE!122 Int) (i!126 Int) (litsSize!121 Int) (j!130 Int) (isShared!125 Int))
    (=> (and ($main_sum2 trail!116 cache!117 todo!118 args!119 size!120 litsSize!121 containsE!122 isApp!123 sz!124 isShared!125 i!126 exprSize!127 found!128 val!129 j!130 lit!131))
        ($main_inv1 1 1 todo!118 args!119 (- size!120 1) litsSize!121 containsE!122 isApp!123 sz!124 isShared!125 i!126 exprSize!127 found!128 val!129 j!130 lit!131))))

; loop entry $main_inv3 (line 53)
(assert
  (forall ((containsE!138 Int) (sz!140 Int) (litsSize!137 Int) (args!135 Int) (size!136 Int) (exprSize!143 Int) (j!146 Int) (found!144 Int) (val!145 Int) (trail!132 Int) (isApp!139 Int) (todo!134 Int) (isShared!141 Int) (lit!147 Int) (i!142 Int) (cache!133 Int))
    (=> (and (= j!146 0)
             ($main_sum1 trail!132 cache!133 todo!134 args!135 size!136 litsSize!137 containsE!138 isApp!139 sz!140 isShared!141 i!142 exprSize!143 found!144 val!145 j!146 lit!147))
        ($main_inv3 trail!132 cache!133 todo!134 args!135 size!136 litsSize!137 containsE!138 isApp!139 sz!140 isShared!141 i!142 exprSize!143 found!144 val!145 j!146 lit!147))))

; loop term $main_sum3 (line 53)
(assert
  (forall ((args!151 Int) (val!161 Int) (isShared!157 Int) (sz!156 Int) (isApp!155 Int) (containsE!154 Int) (trail!148 Int) (j!162 Int) (i!158 Int) (cache!149 Int) (found!160 Int) (exprSize!159 Int) (size!152 Int) (lit!163 Int) (todo!150 Int) (litsSize!153 Int))
    (=> (and (not (< j!162 litsSize!153))
             ($main_inv3 trail!148 cache!149 todo!150 args!151 size!152 litsSize!153 containsE!154 isApp!155 sz!156 isShared!157 i!158 exprSize!159 found!160 val!161 j!162 lit!163))
        ($main_sum3 trail!148 cache!149 todo!150 args!151 size!152 litsSize!153 containsE!154 isApp!155 sz!156 isShared!157 i!158 exprSize!159 found!160 val!161 j!162 lit!163))))

; forwards $main_inv3 (line 53)
(assert
  (forall ((args!151 Int) (val!161 Int) (isShared!157 Int) (sz!156 Int) (isApp!155 Int) (containsE!154 Int) (trail!148 Int) (j!162 Int) (i!158 Int) (cache!149 Int) (found!160 Int) (exprSize!159 Int) (size!152 Int) (lit!163 Int) (todo!150 Int) (litsSize!153 Int))
    (=> (and (= lit!163 cache!149)
             (< j!162 litsSize!153)
             ($main_inv3 trail!148 cache!149 todo!150 args!151 size!152 litsSize!153 containsE!154 isApp!155 sz!156 isShared!157 i!158 exprSize!159 found!160 val!161 j!162 lit!163))
        ($main_inv3 trail!148 cache!149 todo!150 args!151 size!152 litsSize!153 containsE!154 isApp!155 sz!156 isShared!157 i!158 exprSize!159 found!160 val!161 (+ j!162 1) lit!163))))

; VERIFIER_assert (= cache!165 1)
(assert
  (forall ((sz!172 Int) (trail!164 Int) (val!177 Int) (cache!165 Int) (isShared!173 Int) (i!174 Int) (exprSize!175 Int) (j!178 Int) (lit!179 Int) (todo!166 Int) (args!167 Int) (size!168 Int) (litsSize!169 Int) (isApp!171 Int) (found!176 Int) (containsE!170 Int))
    (=> (and (not (= cache!165 1))
             ($main_sum3 trail!164 cache!165 todo!166 args!167 size!168 litsSize!169 containsE!170 isApp!171 sz!172 isShared!173 i!174 exprSize!175 found!176 val!177 j!178 lit!179))
        false)))

(check-sat)
